p cnf 12 50 
-6 -11 -1 0
-11 -8 -9 0
7 -12 -3 0
-7 -11 -3 0
-7 6 5 0
11 -3 -5 0
1 8 -9 0
2 -11 -9 0
-10 9 -11 0
-1 -12 -10 0
-1 2 -7 0
9 -2 -12 0
-3 8 2 0
-3 9 -4 0
-7 -4 -6 0
4 -7 -5 0
-9 -4 -10 0
-12 1 -3 0
-10 5 12 0
-4 -3 2 0
6 -4 1 0
-11 -3 5 0
3 -8 -2 0
-10 -11 -1 0
-10 2 -8 0
-4 -12 -5 0
11 10 -1 0
4 -7 5 0
-12 8 3 0
12 3 9 0
4 5 -12 0
-11 -8 -3 0
11 -1 5 0
3 -2 -10 0
-7 11 -6 0
3 -12 6 0
3 6 -4 0
5 1 7 0
-8 9 5 0
1 6 10 0
-5 4 -10 0
10 3 -6 0
-12 8 -5 0
-6 -11 10 0
2 3 10 0
9 -10 -5 0
-8 5 6 0
-5 -7 6 0
6 9 -8 0
-10 -6 -4 0
